presolving:
(round 1, fast)       0 del vars, 0 del conss, 0 add conss, 0 chg bounds, 0 chg sides, 15000 chg coeffs, 0 upgd conss, 0 impls, 15000 clqs
   (0.2s) running MILP presolver
   (0.2s) MILP presolver found nothing
(round 2, exhaustive) 0 del vars, 0 del conss, 0 add conss, 0 chg bounds, 0 chg sides, 15000 chg coeffs, 15351 upgd conss, 0 impls, 15000 clqs
   (0.8s) probing: 51/15300 (0.3%) - 0 fixings, 0 aggregations, 0 implications, 0 bound changes
   (0.8s) probing aborted: 50/50 successive totally useless probings
   (0.8s) symmetry computation started: requiring (bin +, int -, cont +), (fixed: bin -, int +, cont -)
   (0.9s) no symmetry present
presolving (3 rounds: 3 fast, 2 medium, 2 exhaustive):
 0 deleted vars, 0 deleted constraints, 0 added constraints, 0 tightened bounds, 0 added holes, 0 changed sides, 15000 changed coefficients
 0 implications, 15000 cliques
presolved problem has 15300 variables (15300 bin, 0 int, 0 impl, 0 cont) and 15351 constraints
    301 constraints of type <knapsack>
  15000 constraints of type <setppc>
     50 constraints of type <logicor>
Presolving Time: 0.81

 time | node  | left  |LP iter|LP it/n|mem/heur|mdpt |vars |cons |rows |cuts |sepa|confs|strbr|  dualbound   | primalbound  |  gap   | compl. 
p 1.2s|     1 |     0 |     0 |     - |   locks|   0 |  15k|  15k|  15k|   0 |  0 |   0 |   0 | 0.000000e+00 | 5.972116e+06 |    Inf | unknown
p 3.6s|     1 |     0 |    75 |     - | vbounds|   0 |  15k|  15k|  15k|   0 |  0 |  13 |   0 | 0.000000e+00 | 7.637108e+04 |    Inf | unknown
  9.2s|     1 |     0 | 10738 |     - |   216M |   0 |  15k|  15k|  15k|   0 |  0 |  13 |   0 | 3.377705e+04 | 7.637108e+04 | 126.10%| unknown
r 9.2s|     1 |     0 | 10738 |     - |rounding|   0 |  15k|  15k|  15k|   0 |  0 |  13 |   0 | 3.377705e+04 | 4.505811e+04 |  33.40%| unknown
 11.4s|     1 |     0 | 12370 |     - |   220M |   0 |  15k|  15k|  15k|   4 |  1 |  13 |   0 | 3.387527e+04 | 4.505811e+04 |  33.01%| unknown
 11.5s|     1 |     0 | 12370 |     - |   221M |   0 |  15k|  15k|  11k|   4 |  1 |  13 |   0 | 3.387527e+04 | 4.505811e+04 |  33.01%| unknown
 12.0s|     1 |     0 | 13156 |     - |   222M |   0 |  15k|  11k|  11k|   8 |  2 |  13 |   0 | 3.391613e+04 | 4.505811e+04 |  32.85%| unknown
 13.0s|     1 |     0 | 14784 |     - |   223M |   0 |  15k|  11k|  11k|  11 |  3 |  13 |   0 | 3.415472e+04 | 4.505811e+04 |  31.92%| unknown
 14.2s|     1 |     0 | 16570 |     - |   225M |   0 |  15k|  11k|  11k|  14 |  4 |  13 |   0 | 3.432947e+04 | 4.505811e+04 |  31.25%| unknown
 14.2s|     1 |     0 | 16570 |     - |   225M |   0 |  15k|  11k|  11k|  14 |  4 |  13 |   0 | 3.432947e+04 | 4.505811e+04 |  31.25%| unknown
 14.8s|     1 |     0 | 17289 |     - |   226M |   0 |  15k|  11k|  11k|  17 |  5 |  13 |   0 | 3.437754e+04 | 4.505811e+04 |  31.07%| unknown
 15.8s|     1 |     0 | 18674 |     - |   227M |   0 |  15k|  11k|  11k|  20 |  6 |  13 |   0 | 3.438572e+04 | 4.505811e+04 |  31.04%| unknown
 16.1s|     1 |     0 | 18747 |     - |   228M |   0 |  15k|  11k|  11k|  22 |  7 |  13 |   0 | 3.438625e+04 | 4.505811e+04 |  31.04%| unknown
 16.4s|     1 |     0 | 18994 |     - |   230M |   0 |  15k|  11k|  11k|  23 |  8 |  13 |   0 | 3.439070e+04 | 4.505811e+04 |  31.02%| unknown
 16.7s|     1 |     0 | 19129 |     - |   231M |   0 |  15k|  11k|  11k|  25 |  9 |  13 |   0 | 3.439217e+04 | 4.505811e+04 |  31.01%| unknown
 time | node  | left  |LP iter|LP it/n|mem/heur|mdpt |vars |cons |rows |cuts |sepa|confs|strbr|  dualbound   | primalbound  |  gap   | compl. 
 17.0s|     1 |     0 | 19250 |     - |   232M |   0 |  15k|  11k|  11k|  27 | 10 |  13 |   0 | 3.439437e+04 | 4.505811e+04 |  31.00%| unknown
 17.1s|     1 |     0 | 19297 |     - |   233M |   0 |  15k|  11k|  11k|  28 | 11 |  13 |   0 | 3.439459e+04 | 4.505811e+04 |  31.00%| unknown
 17.7s|     1 |     0 | 19980 |     - |   234M |   0 |  15k|  11k|  11k|  29 | 12 |  13 |   0 | 3.439641e+04 | 4.505811e+04 |  31.00%| unknown
 17.8s|     1 |     0 | 20032 |     - |   236M |   0 |  15k|  11k|  11k|  30 | 13 |  13 |   0 | 3.439704e+04 | 4.505811e+04 |  30.99%| unknown
 17.9s|     1 |     0 | 20046 |     - |   237M |   0 |  15k|  11k|  11k|  31 | 14 |  13 |   0 | 3.439709e+04 | 4.505811e+04 |  30.99%| unknown
 18.0s|     1 |     0 | 20066 |     - |   238M |   0 |  15k|  11k|  11k|  32 | 15 |  13 |   0 | 3.439891e+04 | 4.505811e+04 |  30.99%| unknown
 18.2s|     1 |     0 | 20144 |     - |   239M |   0 |  15k|  11k|  11k|  35 | 16 |  13 |   0 | 3.440126e+04 | 4.505811e+04 |  30.98%| unknown
 18.3s|     1 |     0 | 20182 |     - |   241M |   0 |  15k|  11k|  11k|  37 | 17 |  13 |   0 | 3.440145e+04 | 4.505811e+04 |  30.98%| unknown
 18.5s|     1 |     0 | 20198 |     - |   242M |   0 |  15k|  11k|  11k|  39 | 18 |  13 |   0 | 3.440182e+04 | 4.505811e+04 |  30.98%| unknown
L39.1s|     1 |     0 | 55860 |     - |    rens|   0 |  15k|7947 |  11k|  39 | 18 |  18 |   0 | 3.440182e+04 | 3.513179e+04 |   2.12%| unknown
(run 1, node 1) restarting after 7411 global fixings of integer variables

(restart) converted 22 cuts from the global cut pool into linear constraints

presolving:
(round 1, fast)       7411 del vars, 7 del conss, 0 add conss, 0 chg bounds, 0 chg sides, 7266 chg coeffs, 0 upgd conss, 0 impls, 7734 clqs
   (39.3s) running MILP presolver
   (39.3s) MILP presolver found nothing
(round 2, exhaustive) 7411 del vars, 7 del conss, 0 add conss, 0 chg bounds, 0 chg sides, 7266 chg coeffs, 21 upgd conss, 0 impls, 7734 clqs
presolving (3 rounds: 3 fast, 2 medium, 2 exhaustive):
 7411 deleted vars, 7 deleted constraints, 0 added constraints, 0 tightened bounds, 0 added holes, 0 changed sides, 7269 changed coefficients
 0 implications, 7734 cliques
presolved problem has 7889 variables (7889 bin, 0 int, 0 impl, 0 cont) and 7962 constraints
    177 constraints of type <knapsack>
   7734 constraints of type <setppc>
      1 constraints of type <linear>
     50 constraints of type <logicor>
Presolving Time: 0.93
transformed 3/5 original solutions to the transformed problem space

 time | node  | left  |LP iter|LP it/n|mem/heur|mdpt |vars |cons |rows |cuts |sepa|confs|strbr|  dualbound   | primalbound  |  gap   | compl. 
 41.3s|     1 |     0 | 63956 |     - |   248M |   0 |7889 |7962 |7962 |   0 |  0 |  18 |   0 | 3.440182e+04 | 3.513179e+04 |   2.12%| unknown
 41.3s|     1 |     0 | 63956 |     - |   248M |   0 |7889 |7962 |7537 |   0 |  0 |  18 |   0 | 3.440182e+04 | 3.513179e+04 |   2.12%| unknown
 41.9s|     1 |     0 | 65184 |     - |   249M |   0 |7889 |7537 |7507 |   7 |  1 |  18 |   0 | 3.440182e+04 | 3.513179e+04 |   2.12%| unknown
 42.0s|     1 |     0 | 65184 |     - |   249M |   0 |7889 |7537 |7294 |   7 |  1 |  18 |   0 | 3.440182e+04 | 3.513179e+04 |   2.12%| unknown
 42.3s|     1 |     0 | 65782 |     - |   250M |   0 |7889 |7312 |7282 |  14 |  2 |  18 |   0 | 3.440182e+04 | 3.513179e+04 |   2.12%| unknown
 42.3s|     1 |     0 | 65782 |     - |   250M |   0 |7889 |7312 |7234 |  14 |  2 |  18 |   0 | 3.440182e+04 | 3.513179e+04 |   2.12%| unknown
 42.5s|     1 |     0 | 66056 |     - |   251M |   0 |7889 |7264 |7236 |  19 |  3 |  18 |   0 | 3.440665e+04 | 3.513179e+04 |   2.11%| unknown
 42.6s|     1 |     0 | 66056 |     - |   251M |   0 |7889 |7264 |7205 |  19 |  3 |  18 |   0 | 3.440665e+04 | 3.513179e+04 |   2.11%| unknown
 42.8s|     1 |     0 | 66265 |     - |   251M |   0 |7889 |7233 |7209 |  23 |  4 |  18 |   0 | 3.441810e+04 | 3.513179e+04 |   2.07%| unknown
 43.2s|     1 |     0 | 67133 |     - |   252M |   0 |7889 |7233 |7212 |  26 |  5 |  18 |   0 | 3.447627e+04 | 3.513179e+04 |   1.90%| unknown
 43.2s|     1 |     0 | 67133 |     - |   252M |   0 |7889 |7233 |7100 |  26 |  5 |  18 |   0 | 3.447627e+04 | 3.513179e+04 |   1.90%| unknown
 43.8s|     1 |     0 | 68267 |     - |   253M |   0 |7889 |7121 |7093 |  27 |  6 |  18 |   0 | 3.449677e+04 | 3.513179e+04 |   1.84%| unknown
 43.8s|     1 |     0 | 68267 |     - |   253M |   0 |7889 |7121 |6566 |  27 |  6 |  18 |   0 | 3.449677e+04 | 3.513179e+04 |   1.84%| unknown
 44.0s|     1 |     0 | 68421 |     - |   254M |   0 |7889 |6594 |6557 |  31 |  7 |  18 |   0 | 3.449999e+04 | 3.513179e+04 |   1.83%| unknown
 44.2s|     1 |     0 | 68924 |     - |   254M |   0 |7889 |6594 |6559 |  33 |  8 |  18 |   0 | 3.451120e+04 | 3.513179e+04 |   1.80%| unknown
 time | node  | left  |LP iter|LP it/n|mem/heur|mdpt |vars |cons |rows |cuts |sepa|confs|strbr|  dualbound   | primalbound  |  gap   | compl. 
 44.3s|     1 |     0 | 68924 |     - |   254M |   0 |7889 |6594 |6498 |  33 |  8 |  18 |   0 | 3.451120e+04 | 3.513179e+04 |   1.80%| unknown
 44.6s|     1 |     0 | 69702 |     - |   255M |   0 |7889 |6533 |6500 |  35 |  9 |  18 |   0 | 3.452741e+04 | 3.513179e+04 |   1.75%| unknown
 44.6s|     1 |     0 | 69702 |     - |   255M |   0 |7889 |6533 |6246 |  35 |  9 |  18 |   0 | 3.452741e+04 | 3.513179e+04 |   1.75%| unknown
 44.8s|     1 |     0 | 69719 |     - |   256M |   0 |7889 |6279 |6247 |  36 | 10 |  18 |   0 | 3.452775e+04 | 3.513179e+04 |   1.75%| unknown
 45.0s|     1 |     0 | 70109 |     - |   256M |   0 |7889 |6279 |6249 |  38 | 11 |  18 |   0 | 3.454764e+04 | 3.513179e+04 |   1.69%| unknown
 45.0s|     1 |     0 | 70109 |     - |   256M |   0 |7889 |6279 |6157 |  38 | 11 |  18 |   0 | 3.454764e+04 | 3.513179e+04 |   1.69%| unknown
 45.1s|     1 |     0 | 70268 |     - |   257M |   0 |7889 |6187 |6160 |  41 | 12 |  18 |   0 | 3.455319e+04 | 3.513179e+04 |   1.67%| unknown
 45.1s|     1 |     0 | 70268 |     - |   257M |   0 |7889 |6187 |6130 |  41 | 12 |  18 |   0 | 3.455319e+04 | 3.513179e+04 |   1.67%| unknown
 45.2s|     1 |     0 | 70350 |     - |   258M |   0 |7889 |6157 |6132 |  43 | 13 |  18 |   0 | 3.455673e+04 | 3.513179e+04 |   1.66%| unknown
 45.3s|     1 |     0 | 70423 |     - |   259M |   0 |7889 |6157 |6134 |  45 | 14 |  18 |   0 | 3.455872e+04 | 3.513179e+04 |   1.66%| unknown
 45.5s|     1 |     0 | 70661 |     - |   259M |   0 |7889 |6157 |6119 |  49 | 15 |  18 |   0 | 3.456301e+04 | 3.513179e+04 |   1.65%| unknown
 45.6s|     1 |     0 | 70744 |     - |   260M |   0 |7889 |6157 |6121 |  51 | 16 |  18 |   0 | 3.456364e+04 | 3.513179e+04 |   1.64%| unknown
 45.7s|     1 |     0 | 70861 |     - |   260M |   0 |7889 |6157 |6123 |  53 | 17 |  18 |   0 | 3.456666e+04 | 3.513179e+04 |   1.63%| unknown
 45.9s|     1 |     0 | 71195 |     - |   261M |   0 |7889 |6157 |6124 |  54 | 18 |  18 |   0 | 3.456951e+04 | 3.513179e+04 |   1.63%| unknown
 46.0s|     1 |     0 | 71421 |     - |   262M |   0 |7889 |6157 |6126 |  56 | 19 |  18 |   0 | 3.457228e+04 | 3.513179e+04 |   1.62%| unknown
 time | node  | left  |LP iter|LP it/n|mem/heur|mdpt |vars |cons |rows |cuts |sepa|confs|strbr|  dualbound   | primalbound  |  gap   | compl. 
 46.1s|     1 |     0 | 71449 |     - |   263M |   0 |7889 |6157 |6128 |  58 | 20 |  18 |   0 | 3.457269e+04 | 3.513179e+04 |   1.62%| unknown
 46.2s|     1 |     0 | 71485 |     - |   263M |   0 |7889 |6157 |6121 |  59 | 21 |  18 |   0 | 3.457365e+04 | 3.513179e+04 |   1.61%| unknown
(run 2, node 1) restarting after 3910 global fixings of integer variables

(restart) converted 32 cuts from the global cut pool into linear constraints

presolving:
(round 1, fast)       3910 del vars, 0 del conss, 0 add conss, 0 chg bounds, 0 chg sides, 3834 chg coeffs, 0 upgd conss, 0 impls, 3900 clqs
   (46.5s) running MILP presolver
   (46.5s) MILP presolver found nothing
(round 2, exhaustive) 3910 del vars, 0 del conss, 0 add conss, 0 chg bounds, 0 chg sides, 3834 chg coeffs, 30 upgd conss, 0 impls, 3900 clqs
(round 3, medium)     3910 del vars, 1 del conss, 1 add conss, 0 chg bounds, 3 chg sides, 3840 chg coeffs, 30 upgd conss, 0 impls, 3900 clqs
presolving (4 rounds: 4 fast, 3 medium, 2 exhaustive):
 3910 deleted vars, 1 deleted constraints, 1 added constraints, 0 tightened bounds, 0 added holes, 3 changed sides, 3840 changed coefficients
 0 implications, 3900 cliques
presolved problem has 3979 variables (3979 bin, 0 int, 0 impl, 0 cont) and 4088 constraints
    131 constraints of type <knapsack>
   3900 constraints of type <setppc>
      3 constraints of type <linear>
     54 constraints of type <logicor>
Presolving Time: 1.01
transformed 5/7 original solutions to the transformed problem space

 time | node  | left  |LP iter|LP it/n|mem/heur|mdpt |vars |cons |rows |cuts |sepa|confs|strbr|  dualbound   | primalbound  |  gap   | compl. 
 47.1s|     1 |     0 | 76120 |     - |   265M |   0 |3979 |4088 |4084 |   0 |  0 |  22 |   0 | 3.457365e+04 | 3.513179e+04 |   1.61%| unknown
 47.2s|     1 |     0 | 76120 |     - |   265M |   0 |3979 |4088 |2689 |   0 |  0 |  22 |   0 | 3.457365e+04 | 3.513179e+04 |   1.61%| unknown
 47.4s|     1 |     0 | 76611 |     - |   266M |   0 |3979 |2693 |2638 |   2 |  1 |  22 |   0 | 3.457365e+04 | 3.513179e+04 |   1.61%| unknown
 47.5s|     1 |     0 | 76669 |     - |   266M |   0 |3979 |2687 |2641 |   5 |  2 |  22 |   0 | 3.457365e+04 | 3.513179e+04 |   1.61%| unknown
 47.7s|     1 |     0 | 76734 |     - |   266M |   0 |3979 |2687 |2646 |  10 |  3 |  22 |   0 | 3.457794e+04 | 3.513179e+04 |   1.60%| unknown
 47.8s|     1 |     0 | 76746 |     - |   266M |   0 |3979 |2687 |2647 |  11 |  4 |  22 |   0 | 3.457800e+04 | 3.513179e+04 |   1.60%| unknown
 48.0s|     1 |     0 | 76796 |     - |   267M |   0 |3979 |2687 |2651 |  15 |  5 |  22 |   0 | 3.458011e+04 | 3.513179e+04 |   1.60%| unknown
 48.1s|     1 |     0 | 76806 |     - |   267M |   0 |3979 |2687 |2653 |  17 |  6 |  22 |   0 | 3.458025e+04 | 3.513179e+04 |   1.59%| unknown
 48.2s|     1 |     0 | 76814 |     - |   267M |   0 |3979 |2687 |2655 |  19 |  7 |  22 |   0 | 3.458033e+04 | 3.513179e+04 |   1.59%| unknown
 48.3s|     1 |     0 | 76877 |     - |   267M |   0 |3979 |2687 |2656 |  20 |  8 |  22 |   0 | 3.458647e+04 | 3.513179e+04 |   1.58%| unknown
 48.5s|     1 |     0 | 76880 |     - |   268M |   0 |3979 |2687 |2659 |  23 |  9 |  22 |   0 | 3.458652e+04 | 3.513179e+04 |   1.58%| unknown
 48.6s|     1 |     0 | 76886 |     - |   268M |   0 |3979 |2687 |2640 |  24 | 10 |  22 |   0 | 3.458670e+04 | 3.513179e+04 |   1.58%| unknown
 48.7s|     1 |     0 | 76911 |     - |   268M |   0 |3979 |2687 |2642 |  26 | 11 |  22 |   0 | 3.458797e+04 | 3.513179e+04 |   1.57%| unknown
 48.8s|     1 |     0 | 76949 |     - |   268M |   0 |3979 |2687 |2644 |  28 | 12 |  22 |   0 | 3.458852e+04 | 3.513179e+04 |   1.57%| unknown
 48.9s|     1 |     0 | 76951 |     - |   269M |   0 |3979 |2687 |2646 |  30 | 13 |  22 |   0 | 3.458853e+04 | 3.513179e+04 |   1.57%| unknown
 time | node  | left  |LP iter|LP it/n|mem/heur|mdpt |vars |cons |rows |cuts |sepa|confs|strbr|  dualbound   | primalbound  |  gap   | compl. 
 49.0s|     1 |     0 | 76970 |     - |   269M |   0 |3979 |2687 |2647 |  31 | 14 |  22 |   0 | 3.458898e+04 | 3.513179e+04 |   1.57%| unknown
 49.1s|     1 |     0 | 76991 |     - |   269M |   0 |3979 |2687 |2650 |  34 | 15 |  22 |   0 | 3.458955e+04 | 3.513179e+04 |   1.57%| unknown
 49.2s|     1 |     0 | 77057 |     - |   269M |   0 |3979 |2687 |2637 |  35 | 16 |  22 |   0 | 3.459100e+04 | 3.513179e+04 |   1.56%| unknown
 49.4s|     1 |     0 | 77091 |     - |   269M |   0 |3979 |2687 |2640 |  38 | 17 |  22 |   0 | 3.459159e+04 | 3.513179e+04 |   1.56%| unknown
 49.4s|     1 |     0 | 77096 |     - |   269M |   0 |3979 |2687 |2641 |  39 | 18 |  22 |   0 | 3.459164e+04 | 3.513179e+04 |   1.56%| unknown
(run 3, node 1) restarting after 2609 global fixings of integer variables

(restart) converted 30 cuts from the global cut pool into linear constraints

presolving:
(round 1, fast)       2609 del vars, 0 del conss, 0 add conss, 0 chg bounds, 4 chg sides, 2613 chg coeffs, 0 upgd conss, 0 impls, 1343 clqs
   (49.6s) running MILP presolver
   (49.6s) MILP presolver found nothing
(round 2, medium)     2609 del vars, 1 del conss, 1 add conss, 0 chg bounds, 5 chg sides, 2615 chg coeffs, 0 upgd conss, 0 impls, 1343 clqs
(round 3, exhaustive) 2609 del vars, 1 del conss, 1 add conss, 0 chg bounds, 5 chg sides, 2615 chg coeffs, 30 upgd conss, 0 impls, 1343 clqs
presolving (4 rounds: 4 fast, 3 medium, 2 exhaustive):
 2609 deleted vars, 1 deleted constraints, 1 added constraints, 0 tightened bounds, 0 added holes, 6 changed sides, 2617 changed coefficients
 0 implications, 1343 cliques
presolved problem has 1370 variables (1370 bin, 0 int, 0 impl, 0 cont) and 1509 constraints
    109 constraints of type <knapsack>
   1343 constraints of type <setppc>
      3 constraints of type <linear>
     54 constraints of type <logicor>
Presolving Time: 1.05
transformed 7/9 original solutions to the transformed problem space

 time | node  | left  |LP iter|LP it/n|mem/heur|mdpt |vars |cons |rows |cuts |sepa|confs|strbr|  dualbound   | primalbound  |  gap   | compl. 
 49.8s|     1 |     0 | 79145 |     - |   271M |   0 |1370 |1509 |1505 |   0 |  0 |  22 |   0 | 3.459164e+04 | 3.513179e+04 |   1.56%| unknown
 49.8s|     1 |     0 | 79145 |     - |   271M |   0 |1370 |1509 |1433 |   0 |  0 |  22 |   0 | 3.459164e+04 | 3.513179e+04 |   1.56%| unknown
 50.0s|     1 |     0 | 79752 |     - |   271M |   0 |1370 |1437 |1432 |   1 |  1 |  22 |   0 | 3.459164e+04 | 3.513179e+04 |   1.56%| unknown
 50.1s|     1 |     0 | 79827 |     - |   271M |   0 |1370 |1436 |1434 |   3 |  2 |  22 |   0 | 3.459176e+04 | 3.513179e+04 |   1.56%| unknown
 50.1s|     1 |     0 | 79827 |     - |   271M |   0 |1370 |1436 |1433 |   3 |  2 |  22 |   0 | 3.459176e+04 | 3.513179e+04 |   1.56%| unknown
 50.2s|     1 |     0 | 79849 |     - |   271M |   0 |1370 |1435 |1437 |   7 |  3 |  22 |   0 | 3.459245e+04 | 3.513179e+04 |   1.56%| unknown
 50.2s|     1 |     0 | 79861 |     - |   272M |   0 |1370 |1435 |1438 |   8 |  4 |  22 |   0 | 3.459261e+04 | 3.513179e+04 |   1.56%| unknown
 52.3s|     1 |     2 | 80438 |     - |   273M |   0 |1370 |1406 |1438 |   8 |  6 |  22 |  25 | 3.475031e+04 | 3.513179e+04 |   1.10%| unknown
(run 4, node 1) restarting after 103 global fixings of integer variables

(restart) converted 5 cuts from the global cut pool into linear constraints

presolving:
(round 1, fast)       103 del vars, 0 del conss, 0 add conss, 0 chg bounds, 0 chg sides, 101 chg coeffs, 0 upgd conss, 0 impls, 1242 clqs
(round 2, medium)     103 del vars, 1 del conss, 1 add conss, 0 chg bounds, 1 chg sides, 103 chg coeffs, 0 upgd conss, 0 impls, 1242 clqs
(round 3, exhaustive) 103 del vars, 1 del conss, 1 add conss, 0 chg bounds, 1 chg sides, 103 chg coeffs, 5 upgd conss, 0 impls, 1242 clqs
(round 4, medium)     103 del vars, 2 del conss, 2 add conss, 0 chg bounds, 4 chg sides, 109 chg coeffs, 5 upgd conss, 0 impls, 1242 clqs
presolving (5 rounds: 5 fast, 4 medium, 2 exhaustive):
 103 deleted vars, 2 deleted constraints, 2 added constraints, 0 tightened bounds, 0 added holes, 4 changed sides, 109 changed coefficients
 0 implications, 1242 cliques
presolved problem has 1267 variables (1267 bin, 0 int, 0 impl, 0 cont) and 1411 constraints
    112 constraints of type <knapsack>
   1242 constraints of type <setppc>
      3 constraints of type <linear>
     54 constraints of type <logicor>
Presolving Time: 1.09
transformed 9/11 original solutions to the transformed problem space

 time | node  | left  |LP iter|LP it/n|mem/heur|mdpt |vars |cons |rows |cuts |sepa|confs|strbr|  dualbound   | primalbound  |  gap   | compl. 
 52.5s|     1 |     0 | 81682 |     - |   274M |   0 |1267 |1411 |1407 |   0 |  0 |  22 |  25 | 3.475031e+04 | 3.513179e+04 |   1.10%| unknown
 52.5s|     1 |     0 | 81682 |     - |   274M |   0 |1267 |1411 |1014 |   0 |  0 |  22 |  25 | 3.475031e+04 | 3.513179e+04 |   1.10%| unknown
 52.6s|     1 |     0 | 82043 |     - |   274M |   0 |1267 |1018 |1006 |   1 |  1 |  22 |  25 | 3.475031e+04 | 3.513179e+04 |   1.10%| unknown
 52.6s|     1 |     0 | 82043 |     - |   274M |   0 |1267 |1018 | 972 |   1 |  1 |  22 |  25 | 3.475031e+04 | 3.513179e+04 |   1.10%| unknown
 52.6s|     1 |     0 | 82078 |     - |   274M |   0 |1267 | 975 | 974 |   4 |  2 |  22 |  25 | 3.475031e+04 | 3.513179e+04 |   1.10%| unknown
 52.7s|     1 |     0 | 82083 |     - |   274M |   0 |1267 | 974 | 976 |   6 |  3 |  22 |  25 | 3.475031e+04 | 3.513179e+04 |   1.10%| unknown
 52.8s|     1 |     0 | 82090 |     - |   274M |   0 |1267 | 974 | 979 |   9 |  4 |  22 |  25 | 3.475031e+04 | 3.513179e+04 |   1.10%| unknown
 52.8s|     1 |     0 | 82105 |     - |   274M |   0 |1267 | 974 | 981 |  11 |  6 |  22 |  25 | 3.475031e+04 | 3.513179e+04 |   1.10%| unknown
 52.9s|     1 |     0 | 82110 |     - |   274M |   0 |1267 | 974 | 983 |  13 |  7 |  22 |  25 | 3.475031e+04 | 3.513179e+04 |   1.10%| unknown
 52.9s|     1 |     0 | 82112 |     - |   274M |   0 |1267 | 974 | 984 |  14 |  8 |  22 |  25 | 3.475031e+04 | 3.513179e+04 |   1.10%| unknown
 53.0s|     1 |     0 | 82153 |     - |   275M |   0 |1267 | 974 | 985 |  15 |  9 |  22 |  25 | 3.475031e+04 | 3.513179e+04 |   1.10%| unknown
 53.1s|     1 |     0 | 82168 |     - |   275M |   0 |1267 | 974 | 986 |  16 | 10 |  22 |  25 | 3.475031e+04 | 3.513179e+04 |   1.10%| unknown
 53.1s|     1 |     0 | 82176 |     - |   275M |   0 |1267 | 974 | 990 |  20 | 11 |  22 |  25 | 3.475031e+04 | 3.513179e+04 |   1.10%| unknown
 53.2s|     1 |     0 | 82195 |     - |   275M |   0 |1267 | 974 | 992 |  22 | 12 |  22 |  25 | 3.475031e+04 | 3.513179e+04 |   1.10%| unknown
 53.2s|     1 |     0 | 82210 |     - |   275M |   0 |1267 | 974 | 941 |  23 | 13 |  22 |  25 | 3.475031e+04 | 3.513179e+04 |   1.10%| unknown
 time | node  | left  |LP iter|LP it/n|mem/heur|mdpt |vars |cons |rows |cuts |sepa|confs|strbr|  dualbound   | primalbound  |  gap   | compl. 
 53.3s|     1 |     0 | 82217 |     - |   275M |   0 |1267 | 974 | 943 |  25 | 14 |  22 |  25 | 3.475031e+04 | 3.513179e+04 |   1.10%| unknown
 54.4s|     1 |     2 | 82967 |     - |   275M |   0 |1267 | 906 | 943 |  25 | 16 |  24 |  47 | 3.475469e+04 | 3.513179e+04 |   1.09%| unknown

SCIP Status        : problem is solved [optimal solution found]
Solving Time (sec) : 56.56
Solving Nodes      : 17 (total of 21 nodes in 5 runs)
Primal Bound       : +3.51317921973417e+04 (13 solutions)
Dual Bound         : +3.51317921973417e+04
Gap                : 0.00 %
Solve Status: optimal
Solve Time: 56.57 seconds
